// FEASIBLE
// COST 3179
nNurses=3179;
minHours=3;
maxPresence=12;
maxHours=10;
maxConsec=6;
hoursDay=24;
demand=[1064 1062 1058 1065 1052 1056 1062 1059 1060 1058 1064 1054 1056 1052 1060 1060 1052 1053 1054 1055 1063 1055 1056 1063];
